data/mps_files/q3/22_3.mps
NAME foo
ROWS
 N  OBJ
 E  allocateEach[1]
 E  allocateEach[2]
 E  allocateAllCash
 G  findWorstP[1,2]
 G  findWorstP[2,1]
COLUMNS
    z         OBJ       1
    z         findWorstP[1,2]  1
    z         findWorstP[2,1]  1
    cashProportion[1]  allocateAllCash  1
    cashProportion[1]  findWorstP[1,2]  1.1683607898118940e-01
    cashProportion[1]  findWorstP[2,1]  -1.8338529249954155e-01
    cashProportion[2]  allocateAllCash  1
    cashProportion[2]  findWorstP[1,2]  -1.1683607898118940e-01
    cashProportion[2]  findWorstP[2,1]  1.8338529249954155e-01
    MARKER    'MARKER'                 'INTORG'
    x[1,1]    allocateEach[1]  1
    x[1,1]    findWorstP[1,2]  0.464832340226662
    x[1,1]    findWorstP[2,1]  -1.6660553823583349e-01
    x[1,2]    allocateEach[2]  1
    x[1,2]    findWorstP[1,2]  4.1833158079214861e-01
    x[1,2]    findWorstP[2,1]  -6.5000916926462493e-01
    x[2,1]    allocateEach[1]  1
    x[2,1]    findWorstP[1,2]  -0.464832340226662
    x[2,1]    findWorstP[2,1]  1.6660553823583349e-01
    x[2,2]    allocateEach[2]  1
    x[2,2]    findWorstP[1,2]  -4.1833158079214861e-01
    x[2,2]    findWorstP[2,1]  6.5000916926462493e-01
    MARKER    'MARKER'                 'INTEND'
RHS
    RHS1      allocateEach[1]  1
    RHS1      allocateEach[2]  1
    RHS1      allocateAllCash  1
BOUNDS
 UP BND1      z         1
 MI BND1      cashProportion[1]
 UP BND1      cashProportion[1]  1
 MI BND1      cashProportion[2]
 UP BND1      cashProportion[2]  1
 BV BND1      x[1,1]  
 BV BND1      x[1,2]  
 BV BND1      x[2,1]  
 BV BND1      x[2,2]  
ENDATA
